; benchmark generated from python API
(set-info :status unknown)
(declare-fun x_month () Int)
(declare-fun x_day () Int)
(declare-fun x_year () Int)
(assert
 (>= x_month 1))
(assert
 (<= x_month 12))
(assert
 (>= x_day 1))
(assert
 (<= x_day 31))
(assert
 (let (($x115 (<= x_day 28)))
 (let (($x494 (<= x_day 29)))
 (let (($x134 (= (mod x_year 400) 0)))
 (let (($x642 (= (mod x_year 4) 0)))
 (let (($x335 (ite (or (and $x642 (and (distinct (mod x_year 100) 0) true)) $x134) $x494 $x115)))
 (let (($x446 (= x_month 2)))
 (ite $x446 $x335 true))))))))
(assert
 (let (($x635 (<= x_day 30)))
 (let (($x594 (or (= x_month 4) (= x_month 6) (= x_month 9) (= x_month 11))))
 (ite $x594 $x635 true))))
(assert
 (let (($x462 (= x_year 2023)))
 (let (($x176 (and $x462 (or (> x_month 1) (and (= x_month 1) (>= x_day 31))))))
 (or (> x_year 2023) $x176))))
(assert
 (let (($x138 (or (= (+ (mod (- (+ x_month 1) 1) 12) 1) 4) (= (+ (mod (- (+ x_month 1) 1) 12) 1) 6) (= (+ (mod (- (+ x_month 1) 1) 12) 1) 9) (= (+ (mod (- (+ x_month 1) 1) 12) 1) 11))))
(let ((?x368 (+ (+ x_year 0) (div (- (+ x_month 1) 1) 12))))
(let (($x545 (or (and (= (mod ?x368 4) 0) (and (distinct (mod ?x368 100) 0) true)) (= (mod ?x368 400) 0))))
(let ((?x216 (ite (= (+ (mod (- (+ x_month 1) 1) 12) 1) 2) (ite $x545 29 28) (ite $x138 30 31))))
(let ((?x491 (ite (< x_day 1) 1 (ite (> x_day ?x216) ?x216 x_day))))
(let ((?x297 (ite (< ?x491 1) 1 (ite (> ?x491 ?x216) ?x216 ?x491))))
(let ((?x536 (ite (< 2 (+ (mod (- (+ x_month 1) 1) 12) 1)) (- 3) 9)))
(let ((?x612 (+ (mod (- (+ x_month 1) 1) 12) 1)))
(let ((?x518 (- (+ ?x368 (* (div 0 146097) 400)) (ite (>= 2 ?x612) 1 0))))
(let ((?x367 (ite (<= 0 ?x518) (div ?x518 400) (div (- ?x518 399) 400))))
(let ((?x234 (- ?x518 (* ?x367 400))))
(let ((?x168 (+ (- (+ (* ?x234 365) (div ?x234 4)) (div ?x234 100)) (- (+ (div (+ (* 153 (+ ?x612 ?x536)) 2) 5) ?x297) 1))))
(let ((?x655 (+ (+ (* ?x367 146097) ?x168) (mod 0 146097))))
(let ((?x133 (ite (<= 0 ?x655) (div ?x655 146097) (div (- ?x655 146096) 146097))))
(let ((?x1499 (- ?x655 (* ?x133 146097))))
(let ((?x252 (div (+ (* 400 ?x1499) 591) 146097)))
(let ((?x983 (- ?x1499 (- (+ (* 365 ?x252) (div ?x252 4)) (div ?x252 100)))))
(let ((?x165 (div (+ (* 5 ?x983) 2) 153)))
(let (($x503 (= 0 0)))
(let ((?x485 (ite $x503 ?x297 (+ (- ?x983 (div (+ (* 153 ?x165) 2) 5)) 1))))
(let ((?x442 (- (+ ?x165 3) (ite (> 10 ?x165) 0 12))))
(let ((?x1504 (ite $x503 ?x612 ?x442)))
(let ((?x169 (ite $x503 ?x368 (+ (+ ?x252 (* ?x133 400)) (ite (>= 2 ?x442) 1 0)))))
(let (($x433 (and (= ?x169 2023) (or (< ?x1504 3) (and (= ?x1504 3) (<= ?x485 1))))))
(or (< ?x169 2023) $x433))))))))))))))))))))))))))
(check-sat)
